

# ----------------- Init Section -----------------

include "in.init.test"


# ----------------- Atom Definition Section -----------------

read_data "data.test"

# ----------------- Settings Section -----------------

include "in.settings.test"


# ----------------- Constraints Section -----------------

# ----------------- Run Section -----------------

# The lines above define the system you want to simulate.
# What you do next is up to you.
# Typically a user would minimize and equilibrate
# the system using commands similar to the following:
#  ----   examples   ----
#



dump            1 all custom 50 data/traj.test id mol element x y z
dump_modify	1 append yes
dump_modify     1 element O H 
thermo          1000
thermo_style    custom step temp pe ke press vol lx ly lz xz density
thermo_modify	line yaml





#  -- minimize --
# minimize 1.0e-5 1.0e-7 1000 10000
# (Note: Some fixes, for example "shake", interfere with the minimize command,
#        You can use the "unfix" command to disable them before minimization.)
#  -- declare time step for normal MD --
# timestep 1.0
#  -- run at constant pressure (Nose-Hoover)--
# fix   fxnpt all npt temp 300.0 300.0 100.0 iso 1.0 1.0 1000.0 drag 1.0
#  -- ALTERNATELY, run at constant volume (Nose-Hoover) --
fix   ensemble all nvt temp 300.0 300.0 500.0 tchain 1
#  -- ALTERNATELY, run at constant volume using Langevin dynamics. --
#  -- (This is good for sparse CG polymers in implicit solvent.)   --
# fix fxLAN all langevin 300.0 300.0 5000 48279
# fix fxNVE all nve  #(<--needed by fix langevin)
#  -- Now, finally run the simulation --
run   50000
#  ---- (end of examples) ----

